************************************************************************
file with basedata            : md180_.bas
initial value random generator: 1544946628
************************************************************************
projects                      :  1
jobs (incl. supersource/sink ):  16
horizon                       :  105
RESOURCES
  - renewable                 :  2   R
  - nonrenewable              :  2   N
  - doubly constrained        :  0   D
************************************************************************
PROJECT INFORMATION:
pronr.  #jobs rel.date duedate tardcost  MPM-Time
    1     14      0       15        8       15
************************************************************************
PRECEDENCE RELATIONS:
jobnr.    #modes  #successors   successors
   1        1          3           2   3   4
   2        3          3           7   9  15
   3        3          3           5   6   7
   4        3          2           6   8
   5        3          1          10
   6        3          3          13  14  15
   7        3          2          11  12
   8        3          3          10  13  15
   9        3          2          10  13
  10        3          2          11  12
  11        3          1          14
  12        3          1          14
  13        3          1          16
  14        3          1          16
  15        3          1          16
  16        1          0        
************************************************************************
REQUESTS/DURATIONS:
jobnr. mode duration  R 1  R 2  N 1  N 2
------------------------------------------------------------------------
  1      1     0       0    0    0    0
  2      1     2       0    3    6    3
         2     7       4    0    5    3
         3     8       4    0    4    2
  3      1     5       0    8    6    5
         2     6       8    0    2    5
         3     6       6    0    4    5
  4      1     6       8    0   10    6
         2     9       0    2    5    4
         3     9       6    0    1    5
  5      1     2       5    0    8    7
         2     5       4    0    7    6
         3     5       0    5    7    5
  6      1     1       0    2    4    5
         2     2       8    0    4    4
         3     3       6    0    4    3
  7      1     5       8    0    9    7
         2     7       6    0    8    4
         3     8       6    0    8    3
  8      1     3       0    6   10    6
         2     5       9    0   10    5
         3     6       6    0    9    4
  9      1     3       0    9    7    7
         2     7       0    2    5    6
         3     9       7    0    5    6
 10      1     3       6    0    9    3
         2     5       6    0    7    2
         3     6       6    0    7    1
 11      1     2       3    0    2   10
         2     8       1    0    2    9
         3    10       0    2    2    8
 12      1     1       4    0    5    8
         2     6       2    0    3    7
         3     6       0    2    2    8
 13      1     5       0    4    8    2
         2     6      10    0    6    2
         3    10      10    0    4    2
 14      1     1       8    0    7    8
         2     4       7    0    4    7
         3     9       5    0    3    7
 15      1     6       0    3    2    7
         2     7       4    0    2    6
         3    10       3    0    1    6
 16      1     0       0    0    0    0
************************************************************************
RESOURCEAVAILABILITIES:
  R 1  R 2  N 1  N 2
   37   19   85   79
************************************************************************
